SECTION Graph 
Nodes 173
Edges 298
E 1 8 5
E 1 129 1
E 1 130 1
E 2 4 1
E 2 130 12
E 3 4 12
E 3 5 1
E 3 129 1
E 3 130 1
E 4 6 1
E 5 6 12
E 5 128 1
E 7 9 1
E 7 14 5
E 7 126 12
E 8 126 1
E 8 127 1
E 9 10 12
E 9 11 1
E 9 16 5
E 10 12 1
E 10 126 1
E 10 127 1
E 11 12 12
E 11 18 5
E 12 125 1
E 13 20 5
E 13 123 1
E 13 124 1
E 14 16 1
E 14 124 12
E 15 16 12
E 15 17 1
E 15 123 1
E 15 124 1
E 16 18 1
E 17 18 12
E 17 122 1
E 19 21 1
E 19 26 5
E 19 120 12
E 20 120 1
E 20 121 1
E 21 22 12
E 21 23 1
E 21 28 5
E 22 24 1
E 22 120 1
E 22 121 1
E 23 24 12
E 23 30 5
E 24 119 1
E 25 32 5
E 25 117 1
E 25 118 1
E 26 28 1
E 26 118 12
E 27 28 12
E 27 29 1
E 27 117 1
E 27 118 1
E 28 30 1
E 29 30 12
E 29 116 1
E 31 33 1
E 31 38 5
E 31 114 12
E 32 114 1
E 32 115 1
E 33 34 12
E 33 35 1
E 33 40 5
E 34 36 1
E 34 114 1
E 34 115 1
E 35 36 12
E 35 42 5
E 36 113 1
E 37 44 5
E 37 111 1
E 37 112 1
E 38 40 1
E 38 112 12
E 39 40 12
E 39 41 1
E 39 111 1
E 39 112 1
E 40 42 1
E 41 42 12
E 41 110 1
E 43 45 1
E 43 106 2
E 43 108 12
E 44 108 1
E 44 109 1
E 45 46 12
E 45 47 1
E 45 105 2
E 46 48 1
E 46 108 1
E 46 109 1
E 47 48 12
E 47 104 2
E 48 107 1
E 49 56 5
E 49 102 1
E 49 103 1
E 50 52 1
E 50 103 12
E 50 106 3
E 51 52 12
E 51 53 1
E 51 102 1
E 51 103 1
E 52 54 1
E 52 105 3
E 53 54 12
E 53 101 1
E 54 104 3
E 55 57 1
E 55 62 5
E 55 99 12
E 56 99 1
E 56 100 1
E 57 58 12
E 57 59 1
E 57 64 5
E 58 60 1
E 58 99 1
E 58 100 1
E 59 60 12
E 59 66 5
E 60 98 1
E 61 68 5
E 61 96 1
E 61 97 1
E 62 64 1
E 62 97 12
E 63 64 12
E 63 65 1
E 63 96 1
E 63 97 1
E 64 66 1
E 65 66 12
E 65 95 1
E 67 69 1
E 67 74 5
E 67 93 12
E 68 93 1
E 68 94 1
E 69 70 12
E 69 71 1
E 69 76 5
E 70 72 1
E 70 93 1
E 70 94 1
E 71 72 12
E 71 78 5
E 72 92 1
E 73 80 5
E 73 90 1
E 73 91 1
E 74 76 1
E 74 91 12
E 75 76 12
E 75 77 1
E 75 90 1
E 75 91 1
E 76 78 1
E 77 78 12
E 77 89 1
E 79 81 1
E 79 87 12
E 80 87 1
E 80 88 1
E 81 82 12
E 81 83 1
E 82 84 1
E 82 87 1
E 82 88 1
E 83 84 12
E 84 86 1
E 85 104 206
E 86 88 1
E 86 89 5
E 88 90 5
E 89 90 1
E 92 94 1
E 92 95 5
E 94 96 5
E 95 96 1
E 98 100 1
E 98 101 5
E 100 102 5
E 101 102 1
E 104 105 1
E 105 106 1
E 107 109 1
E 107 110 5
E 109 111 5
E 110 111 1
E 113 115 1
E 113 116 5
E 115 117 5
E 116 117 1
E 119 121 1
E 119 122 5
E 121 123 5
E 122 123 1
E 125 127 1
E 125 128 5
E 127 129 5
E 128 129 1
E 1 131 100000
E 2 131 100000
E 3 132 100000
E 4 132 100000
E 5 133 100000
E 6 133 100000
E 7 134 100000
E 8 134 100000
E 9 135 100000
E 10 135 100000
E 11 136 100000
E 12 136 100000
E 13 137 100000
E 14 137 100000
E 15 138 100000
E 16 138 100000
E 17 139 100000
E 18 139 100000
E 19 140 100000
E 20 140 100000
E 21 141 100000
E 22 141 100000
E 23 142 100000
E 24 142 100000
E 25 143 100000
E 26 143 100000
E 27 144 100000
E 28 144 100000
E 29 145 100000
E 30 145 100000
E 31 146 100000
E 32 146 100000
E 33 147 100000
E 34 147 100000
E 35 148 100000
E 36 148 100000
E 37 149 100000
E 38 149 100000
E 39 150 100000
E 40 150 100000
E 41 151 100000
E 42 151 100000
E 43 152 100000
E 44 152 100000
E 45 153 100000
E 46 153 100000
E 47 154 100000
E 48 154 100000
E 49 155 100000
E 50 155 100000
E 51 156 100000
E 52 156 100000
E 53 157 100000
E 54 157 100000
E 55 158 100000
E 56 158 100000
E 57 159 100000
E 58 159 100000
E 59 160 100000
E 60 160 100000
E 61 161 100000
E 62 161 100000
E 63 162 100000
E 64 162 100000
E 65 163 100000
E 66 163 100000
E 67 164 100000
E 68 164 100000
E 69 165 100000
E 70 165 100000
E 71 166 100000
E 72 166 100000
E 73 167 100000
E 74 167 100000
E 75 168 100000
E 76 168 100000
E 77 169 100000
E 78 169 100000
E 79 170 100000
E 80 170 100000
E 81 171 100000
E 82 171 100000
E 83 172 100000
E 84 172 100000
E 85 173 100000
END 

SECTION Terminals 
Terminals 44
TP 131 153
TP 132 154
TP 133 155
TP 134 156
TP 135 157
TP 136 158
TP 137 159
TP 138 160
TP 139 161
TP 140 162
TP 141 163
TP 142 164
TP 143 165
TP 144 166
TP 145 167
TP 146 168
TP 147 169
TP 148 170
TP 149 171
TP 150 172
TP 151 173
TP 152 37
END 
